729,371
817,673
598,662
923,230
653,397
778,336
441,284
711,406
1101,406
839,624
975,257
708,459
396,498
718,643
387,257
910,91
1194,240
293,124
702,385
575,512
1066,467
512,529
491,780
947,599
723,140
1095,341
487,265
